2025-03-15 04:29:10,066 - INFO - Set parameter WLSAccessID
2025-03-15 04:29:10,066 - INFO - Set parameter WLSSecret
2025-03-15 04:29:10,066 - INFO - Set parameter LicenseID to value 2628134
2025-03-15 04:29:10,268 - INFO - Academic license 2628134 - for non-commercial use only - registered to bs___@uw.edu
2025-03-15 04:29:10,268 - INFO - Initialization complete
2025-03-15 04:29:10,548 - INFO - Variables created successfully
2025-03-15 04:29:12,347 - INFO - Constraints added successfully
2025-03-15 04:29:12,349 - INFO - Objective function with soft constraints set successfully
2025-03-15 04:29:12,424 - INFO - ================================================================================
2025-03-15 04:29:12,424 - INFO - SYSTEM CONFIGURATION
2025-03-15 04:29:12,424 - INFO - System has 373.7 GB of RAM available
2025-03-15 04:29:12,424 - INFO - Setting Gurobi memory limit to 355 GB (95% of available RAM)
2025-03-15 04:29:12,424 - INFO - Set parameter MemLimit to value 363520
2025-03-15 04:29:12,424 - INFO - Set parameter Presolve to value 1
2025-03-15 04:29:12,424 - INFO - Set parameter Method to value 1
2025-03-15 04:29:12,424 - INFO - Set parameter MIPFocus to value 1
2025-03-15 04:29:12,424 - INFO - Set parameter MIPGap to value 0.1
2025-03-15 04:29:12,425 - INFO - Set parameter TimeLimit to value 25200
2025-03-15 04:29:12,425 - INFO - Set parameter NodefileStart to value 0.95
2025-03-15 04:29:12,425 - INFO - Set parameter NodefileDir to value "/tmp/gurobi_nodefiles"
2025-03-15 04:29:12,425 - INFO - Node file directory: /tmp/gurobi_nodefiles
2025-03-15 04:29:12,425 - INFO - Will switch to disk storage when memory reaches 95.0% of allocated RAM
2025-03-15 04:29:12,425 - INFO - Set parameter OutputFlag to value 1
2025-03-15 04:29:12,425 - INFO - Set parameter DisplayInterval to value 5
2025-03-15 04:29:12,433 - INFO - Set parameter Threads to value 32
2025-03-15 04:29:12,433 - INFO - Using 32 threads out of 48 available cores
2025-03-15 04:29:12,433 - INFO - Generating initial solution using advanced greedy algorithm...
2025-03-15 04:29:12,568 - INFO - Greedy algorithm generated initial values for: 840 x vars, 68 z vars, 840 y vars
2025-03-15 04:29:12,572 - INFO - Initial solution: 840/200 students assigned, 68/68 sections used
2025-03-15 04:29:12,572 - INFO - Set parameter MIPFocus to value 1
2025-03-15 04:29:12,572 - INFO - ================================================================================
2025-03-15 04:29:12,572 - INFO - STARTING OPTIMIZATION
2025-03-15 04:29:12,572 - INFO - Maximum possible satisfied requests: 1200
2025-03-15 04:29:12,572 - INFO - ================================================================================
2025-03-15 04:29:12,609 - INFO - Gurobi Optimizer version 12.0.1 build v12.0.1rc0 (linux64 - "Debian GNU/Linux 12 (bookworm)")
2025-03-15 04:29:12,609 - INFO - 
2025-03-15 04:29:12,609 - INFO - CPU model: Intel(R) Xeon(R) Platinum 8259CL CPU @ 2.50GHz, instruction set [SSE2|AVX|AVX2|AVX512]
2025-03-15 04:29:12,609 - INFO - Thread count: 24 physical cores, 48 logical processors, using up to 32 threads
2025-03-15 04:29:12,609 - INFO - 
2025-03-15 04:29:12,609 - INFO - Non-default parameters:
2025-03-15 04:29:12,609 - INFO - TimeLimit  25200
2025-03-15 04:29:12,609 - INFO - MemLimit  363520
2025-03-15 04:29:12,609 - INFO - MIPGap  0.1
2025-03-15 04:29:12,609 - INFO - Method  1
2025-03-15 04:29:12,609 - INFO - MIPFocus  1
2025-03-15 04:29:12,609 - INFO - NodefileStart  0.95
2025-03-15 04:29:12,609 - INFO - Presolve  1
2025-03-15 04:29:12,609 - INFO - Threads  32
2025-03-15 04:29:12,609 - INFO - 
2025-03-15 04:29:12,611 - INFO - Academic license 2628134 - for non-commercial use only - registered to bs___@uw.edu
2025-03-15 04:29:12,611 - INFO - Optimize a model with 118336 rows, 45006 columns and 319024 nonzeros
2025-03-15 04:29:12,615 - INFO - Model fingerprint: 0x3d31500c
2025-03-15 04:29:12,615 - INFO - Variable types: 0 continuous, 45006 integer (44938 binary)
2025-03-15 04:29:12,616 - INFO - Coefficient statistics:
2025-03-15 04:29:12,616 - INFO -   Matrix range     [1e+00, 1e+00]
2025-03-15 04:29:12,616 - INFO -   Objective range  [1e+00, 1e+03]
2025-03-15 04:29:12,616 - INFO -   Bounds range     [1e+00, 1e+00]
2025-03-15 04:29:12,616 - INFO -   RHS range        [1e+00, 4e+01]
2025-03-15 04:29:12,616 - INFO - 
2025-03-15 04:29:12,617 - INFO - Warning: Completing partial solution with 43258 unfixed non-continuous variables out of 45006
2025-03-15 04:29:12,700 - INFO - User MIP start produced solution with objective 48000 (0.09s)
2025-03-15 04:29:12,706 - INFO - Loaded user MIP start with objective 48000
2025-03-15 04:29:12,706 - INFO - 
2025-03-15 04:29:13,637 - INFO - Presolve removed 154 rows and 1208 columns
2025-03-15 04:29:13,637 - INFO - Presolve time: 0.93s
2025-03-15 04:29:13,637 - INFO - Presolved: 118182 rows, 43798 columns, 317722 nonzeros
2025-03-15 04:29:13,715 - INFO - Variable types: 0 continuous, 43798 integer (43732 binary)
2025-03-15 04:29:15,633 - INFO - 
2025-03-15 04:29:15,634 - INFO - Root relaxation: objective 0.000000e+00, 7617 iterations, 1.91 seconds (1.86 work units)
2025-03-15 04:29:15,710 - INFO - 
2025-03-15 04:29:15,710 - INFO -     Nodes    |    Current Node    |     Objective Bounds      |     Work
2025-03-15 04:29:15,710 - INFO -  Expl Unexpl |  Obj  Depth IntInf | Incumbent    BestBd   Gap | It/Node Time
2025-03-15 04:29:15,710 - INFO - 
2025-03-15 04:29:15,710 - INFO - H    0     0                       0.0000000    0.00000  0.00%     -    3s
2025-03-15 04:29:15,710 - INFO -      0     0    0.00000    0 3111    0.00000    0.00000  0.00%     -    3s
2025-03-15 04:29:15,715 - INFO - 
2025-03-15 04:29:15,715 - INFO - Explored 1 nodes (7617 simplex iterations) in 3.11 seconds (2.78 work units)
2025-03-15 04:29:15,715 - INFO - Thread count was 32 (of 48 available processors)
2025-03-15 04:29:15,715 - INFO - 
2025-03-15 04:29:15,715 - INFO - Solution count 2: 0 48000 
2025-03-15 04:29:15,715 - INFO - 
2025-03-15 04:29:15,715 - INFO - Optimal solution found (tolerance 1.00e-01)
2025-03-15 04:29:15,716 - INFO - Best objective 0.000000000000e+00, best bound 0.000000000000e+00, gap 0.0000%
2025-03-15 04:29:15,731 - INFO - 
2025-03-15 04:29:15,731 - INFO - User-callback calls 316, time in user-callback 0.00 sec
2025-03-15 04:29:15,731 - INFO - ================================================================================
2025-03-15 04:29:15,731 - INFO - OPTIMIZATION RESULTS
2025-03-15 04:29:15,733 - INFO - STATUS: Found optimal solution!
2025-03-15 04:29:15,733 - INFO - SATISFIED REQUESTS: 1200 out of 1200
2025-03-15 04:29:15,733 - INFO - SATISFACTION RATE: 100.00%
2025-03-15 04:29:15,733 - INFO - CAPACITY VIOLATIONS: 0 sections over capacity
2025-03-15 04:29:15,733 - INFO - TOTAL OVERAGES: 0 students over capacity
2025-03-15 04:29:15,734 - INFO - OBJECTIVE VALUE: 0.0
2025-03-15 04:29:15,734 - INFO -   - Missed requests penalty: 0
2025-03-15 04:29:15,734 - INFO -   - Capacity violations penalty: 0.0
2025-03-15 04:29:15,734 - INFO - RUNTIME: 3.12 seconds
2025-03-15 04:29:15,734 - INFO - NODES EXPLORED: 1.0
2025-03-15 04:29:15,734 - INFO - MIP GAP: 0.00%
2025-03-15 04:29:15,734 - INFO - PEAK MEMORY USAGE: Not available
2025-03-15 04:29:15,734 - INFO - ================================================================================
2025-03-15 04:29:15,734 - INFO - Saving solution files...
2025-03-15 04:29:15,772 - INFO - Solution saved successfully
2025-03-15 04:29:15,773 - INFO - Warning: environment still referenced so free is deferred (Continue to use WLS)
